robust/generate/spp_dkp_Lefebvre_et_al_2026/src/shortest_path_3_3.kp
45
95

[15.66 8.7 4.46 1.22 7.04 7.49]

[95 88 12 76 14 58]
